%mem=100MB

#p b3lyp/cc-pVTZ opt freq  pop=full gfinput

hydogen (atom) with cc-pVTZ basis set

0 2
H

--- 
