%mem=100MB

#p b3lyp/STO-3G opt freq  pop=full gfinput

hydrogen (atom) with STO-3G basis set

0 2
H

--- 
