#p B3LYP/6-31+g(d,p) opt freq pop=full gfinput

carbon_monoxide

0 1
C1 
O2 1 d

d=1.128
