#p B3LYP/6-31+g(d,p) opt freq pop=full gfinput

ethane

0 1
C1
C2 1 d1
H3 1 d2 2 a1
H4 1 d3 2 a2 3 t1
H5 1 d4 2 a3 3 t2
H6 2 d5 1 a4 3 t3
H7 2 d6 1 a5 6 t4
H8 2 d7 1 a6 6 t5

d1=1.54
d2=1.09
a1=111.
d3=1.09 
a2=111.
t1=108.
d4=1.09
a3=111.
t2=-108.
d5=1.09
a4=111.
t3=180.
d6=1.09
a5=111.
t4=108.
d7=1.09
a6=111.
t5=-108.

 

