%mem=100MB

#p b3lyp/aug-cc-pVDZ opt freq pop=full gfinput

hydrogen (moldecule) with and aug-cc-pVDZ basis function

0 1
H1
H2 1 d

d=0.74

---
