%mem=100MB

#p b3lyp/STO-3G opt freq  pop=full gfinput

hydrogen (molecule) with hf/STO-3G basis function

0 1
H1
H2 1 d

d=0.74

--- 
