%mem=100MB

#p hf/6-31++G opt freq  pop=full gfinput

hydrogen(molecule) with  hf/6-31++G basis function

0 1
H1
H2 1 d

d=0.74

--- 
