%mem=100MB

#p hf/aug-cc-pVDZ opt freq pop=full gfinput

hydrogen (molecule) with and aug-cc-pVDZ basis set

0 1
H1
H2 1 d

d=0.74

---
