%mem=100MB

#p hf/cc-pVQZ opt freq  pop=full gfinput

hydogen (molecule) with cc-pVQZ basis set

0 1
H1
H2 1 d

d=0.74

--- 
