%mem=100MB

#p b3lyp/6-31++G opt freq  pop=full gfinput

hydrogen(atom) with  hf/6-31++G basis function

0 2
H

--- 
