%mem=100MB

#p b3lyp/aug-cc-pVDZ opt freq pop=full gfinput

hydrogen (atom) with and aug-cc-pVDZ basis function

0 2
H 

---
