%mem=100MB

#p b3pw91/6-31++G opt freq  pop=full gfinput

hydrogen(atom) with  6-31++G basis set

0 2
H

--- 
