%mem=100MB

#p b3pw91/aug-cc-pVDZ opt freq pop=full gfinput

hydrogen (atom) with and aug-cc-pVDZ basis set

0 2
H 

---
