%mem=100MB

#p b3pw91/cc-pVQZ opt freq  pop=full gfinput

hydogen (atom) with cc-pVQZ basis set

0 2
H

--- 
