%mem=100MB

#p b3pw91/cc-pVDZ opt freq  pop=full gfinput

hydogen (atom) with cc-pVDZ basis set

0 2
H

--- 
