%mem=100MB

#p b3pw91/6-31G opt freq  pop=full gfinput

hydogen (atom) with 6-31G basis set

0 2
H

--- 
