%mem=100MB

#p hf/6-31++G opt freq  pop=full gfinput

hydrogen(atom) with  6-31++G basis set

0 2
H

--- 
