%mem=100MB

#p hf/6-31G opt freq  pop=full gfinput

hydogen (atom) with 6-31G basis set

0 2
H

--- 
