%mem=100MB

#p hf/6-31G opt freq  pop=full gfinput

hydogen (atom) with hf/6-31G basis function

0 2
H

--- 
