%mem=100MB

#p hf/STO-3G opt freq  pop=full gfinput

hydrogen (atom) with hf/STO-3G basis function

0 2
H

--- 
