%mem=100MB

#p mp2/6-31++G opt  pop=full gfinput

hydrogen(atom) with  hf/6-31++G basis function

0 2
H

--- 
