%mem=100MB

#p mp2/6-31+G opt pop=full gfinput

hydrogen(atom) with 6-31+G basis  set

0 2
H

--- 
