%mem=100MB

#p mp2/aug-cc-pVDZ opt pop=full gfinput

hydrogen (atom) with and aug-cc-pVDZ basis function

0 2
H 

---
