%mem=100MB

#p mp2/cc-pVTZ opt pop=full gfinput

hydogen (atom) with cc-pVTZ basis set

0 2
H

--- 
