%mem=100MB

#p mp2/cc-pVDZ opt pop=full gfinput

hydogen (atom) with cc-pVDZ basis set

0 2
H

--- 
