%mem=100MB

#p mp2/6-31G opt pop=full gfinput

hydogen (atom) with 6-31G basis set

0 2
H

--- 
