%mem=100MB

#p mp2/sto-3g opt pop=full gfinput

hydrogen (atom) with STO-3G basis set

0 2
H

--- 
