#p B3LYP/6-31+g(d,p) opt freq pop=full gfinput

nitrogen_dioxite

0 2
N1
O2 1 d
O3 1 d 2 a

d=1.21
a=134.1
