#p B3LYP/6-31+g(d,p) opt freq pop=full gfinput

water

0 1
O1
H2 1 d
H3 1 d 2 a

d=0.958
a=104.5
