#p B3LYP/6-31+g(d,p) opt pop=full gfinput

propane

0 1
C1
C2 1 dCC
C3 1 dCC 2 aCC
H4 1 d3 2 a2 3 t1
H5 1 d4 2 a3 4 t2
H6 2 d5 1 a4 3 t3
H7 3 d6 1 a5 2 t4
H8 2 d7 1 a6 6 t5
H9 2 d8 1 a7 8 t6
H10 3 d9 1 a8 7 t7
H11 3 d10 1 a9 10 t8

dCC=1.526
a=112.4
d3=1.096
a2=109.5
t1=126.95
d4=1.096
a3=109.56
t2=106.1
d5=1.089
a4=111.8
t3=0.
d6=1.089
a5=111.8
t4=0.
d7=1.094
a6=110.6
t5=107.3
d8=1.094
a7=110.6
t6=108.1
d9=1.094
a8=110.6
t7=107.3
d10=1.094
a9=110.6
t8=107.3
