%mem=100MB

#p b3pw91/STO-3G opt freq  pop=full gfinput

hydrogen (molecule) with STO-3G basis set

0 1
H1
H2 1 d

d=0.74

--- 
