%mem=100MB

#p B3LYP/6-31g(d,p) opt freq pop=full gfinput

H2

0 1
 h
 h   1 hh2     
 
hh2         0.640000  
  
---