%mem=100MB

#p B3LYP/6-31g(d,p) opt freq pop=full gfinput

H2

0 1
li
f   1 fli2    
 
fli2        1.970000
    
---