%mem=100MB

#p b3lyp/6-31G opt freq  pop=full gfinput

hydogen (molecule) with 6-31G basis set

0 1
H1
H2 1 d

d=0.74

--- 
